
c turning on binary mode checking

c parsing input formula with 5849 variables and 25804 clauses

c finished parsing, read 1054 bytes from proof file

c detected empty clause; start verification via backward checking

c 329 of 25804 clauses in core                            

c 43 of 232 lemmas in core using 371 resolution steps

c 0 RAT lemmas in core; 0 redundant literals in core lemmas

s VERIFIED

c verification time: 0.053 seconds
